p cnf 91 377
7 9 -47 -48 55 64 0
1 -42 45 60 -87 0
3 4 -16 -50 68 0
3 4 19 -51 -68 0
-4 52 -63 82 -84 0
-4 -61 78 82 84 0
7 9 -47 55 64 0
9 40 -43 46 -87 0
10 12 26 -27 -28 0
10 20 21 22 -77 0
12 26 -27 -28 -31 0
12 -31 -73 78 79 0
-17 22 -44 71 -77 0
19 23 -33 -36 -65 0
19 23 -65 74 -76 0
20 -38 53 -54 -70 0
20 41 53 -70 71 0
29 -30 -31 57 58 0
29 -31 57 58 -78 0
-31 57 58 -78 79 0
3 19 51 68 -91 0
-8 -42 46 -60 -87 0
1 2 3 -62 0
1 21 83 88 0
1 42 45 83 0
2 3 56 -62 0
2 24 -35 59 0
2 -32 -35 59 0
-2 -5 -6 61 0
-2 -6 -65 74 0
3 4 16 51 0
3 -50 66 89 0
-3 -19 51 89 0
-3 -23 67 91 0
-3 50 -66 -89 0
-3 50 67 91 0
-3 50 -89 91 0
-3 -50 51 89 0
-3 -50 -66 -89 0
4 19 23 -51 0
-4 -78 79 84 0
-6 -35 36 37 0
7 9 -47 -48 0
-7 -45 -83 87 0
8 46 60 83 0
-8 10 60 83 0
13 49 67 85 0
-16 -19 -89 91 0
-17 -18 -19 -48 0
18 38 47 54 0
19 28 -33 34 0
-19 -24 -25 -59 0
-32 -35 -56 -61 0
-35 56 -61 82 0
-35 65 -74 82 0
-38 -54 -70 72 0
-41 53 -54 -72 0
10 20 22 69 -77 0
1 42 83 88 0
3 16 51 -91 0
-4 52 -78 -84 0
-5 -63 78 84 0
-7 -42 -60 -83 0
-8 42 46 -87 0
10 -25 -33 -36 0
11 12 26 34 0
13 57 -78 -79 0
16 49 67 -68 0
-16 -49 -89 91 0
-18 -39 46 -48 0
19 23 -30 -36 0
19 23 39 41 0
19 23 -74 -75 0
19 23 -80 81 0
19 -65 -74 -75 0
19 -65 -75 -76 0
25 27 -33 34 0
-25 -33 -65 -74 0
-27 -33 34 -56 0
-30 57 -73 79 0
-50 -51 68 -89 0
1 3 -87 0
1 21 23 0
1 23 -62 0
-1 -2 -10 0
-1 -24 -29 0
-1 28 -32 0
-2 -74 -82 0
3 -16 59 0
3 35 59 0
3 -49 -51 0
3 56 -91 0
4 -6 -84 0
4 23 -67 0
4 -50 51 0
4 79 84 0
6 -37 63 0
7 8 9 0
-7 -46 -83 0
8 9 46 0
8 -45 55 0
8 -66 -88 0
-8 48 55 0
-8 -70 88 0
-9 -40 43 0
10 12 49 0
10 -21 22 0
10 -27 -57 0
10 -69 83 0
-10 -26 28 0
11 12 -15 0
11 13 57 0
11 14 -19 0
11 -23 -28 0
11 76 80 0
-11 -14 -15 0
-12 -29 73 0
13 67 -90 0
-13 -49 90 0
-13 66 86 0
-14 58 -84 0
15 -29 30 0
-15 -31 76 0
17 19 39 0
17 44 -71 0
17 -44 77 0
17 -72 -77 0
-17 -39 -40 0
-17 44 -72 0
-18 -23 -38 0
19 54 81 0
-19 25 65 0
-19 -28 -34 0
-19 -40 -43 0
-19 -51 -81 0
-19 -54 81 0
-19 -61 -84 0
-19 85 -86 0
20 -39 -69 0
-20 -22 70 0
-20 70 72 0
21 71 -72 0
22 -41 70 0
22 -69 88 0
-22 53 -55 0
23 39 41 0
23 47 64 0
23 -49 -91 0
23 -51 85 0
23 56 -91 0
23 60 69 0
-23 -24 -25 0
-23 -40 80 0
-23 -48 54 0
-23 -86 91 0
24 35 -56 0
-24 35 62 0
25 28 33 0
25 -33 -80 0
25 75 76 0
-25 -76 -80 0
-26 28 31 0
29 -73 80 0
-31 -73 -79 0
-31 -76 -80 0
-32 33 59 0
-35 -52 62 0
-36 37 -63 0
-36 63 78 0
38 39 64 0
38 41 -54 0
38 69 70 0
-38 53 71 0
-38 54 72 0
-43 44 77 0
45 46 48 0
45 60 70 0
-46 -64 -83 0
49 -50 -51 0
50 -66 86 0
58 -76 80 0
-64 -70 -83 0
65 74 82 0
66 -86 -90 0
-66 -67 86 0
-78 82 84 0
1 2 0
1 3 0
1 24 0
1 -60 0
-1 6 0
-1 8 0
-1 24 0
-1 27 0
-1 28 0
-1 -34 0
-1 70 0
-1 83 0
-1 84 0
2 5 0
2 6 0
2 8 0
2 -32 0
2 -61 0
2 74 0
-2 -5 0
-2 61 0
-2 -65 0
3 50 0
3 -68 0
3 89 0
3 -91 0
-3 -23 0
-3 67 0
-3 -68 0
-3 -82 0
4 33 0
4 -44 0
4 -52 0
4 61 0
4 67 0
4 -73 0
4 -82 0
4 -85 0
4 86 0
-4 -63 0
-4 79 0
5 -52 0
5 55 0
5 -62 0
5 -63 0
5 78 0
5 -78 0
5 -82 0
-5 35 0
-5 74 0
-5 -78 0
6 35 0
6 -62 0
6 -82 0
-6 59 0
-6 82 0
7 8 0
7 42 0
7 -43 0
7 -55 0
7 60 0
7 64 0
7 -87 0
-7 -8 0
-7 83 0
8 -23 0
8 -45 0
8 -46 0
8 55 0
8 -66 0
-8 -9 0
-8 -19 0
-8 -42 0
-8 -55 0
-8 87 0
-8 -88 0
9 64 0
9 -83 0
-9 -45 0
-9 -46 0
10 26 0
10 -28 0
10 -57 0
10 -70 0
10 81 0
-10 -11 0
-10 14 0
-10 -24 0
-10 27 0
-10 -34 0
-10 70 0
-10 -70 0
11 -12 0
11 -28 0
11 -76 0
-11 31 0
-11 -57 0
-11 76 0
-11 80 0
12 -61 0
12 -79 0
-12 31 0
-12 -48 0
-12 -58 0
-12 78 0
-12 -78 0
-12 -79 0
13 58 0
13 78 0
13 85 0
13 -85 0
13 -90 0
13 91 0
-13 28 0
-13 -67 0
-13 68 0
14 31 0
14 -57 0
14 -58 0
14 73 0
14 -79 0
-14 -31 0
-14 57 0
15 29 0
15 31 0
15 36 0
15 57 0
15 -57 0
15 -58 0
-15 29 0
-15 -30 0
16 50 0
16 -91 0
-16 -23 0
-16 -50 0
-16 67 0
17 40 0
17 -88 0
-17 -58 0
18 21 0
18 41 0
18 64 0
18 69 0
18 -71 0
-18 -41 0
-18 42 0
-18 -47 0
-18 -55 0
-18 -60 0
-18 -64 0
-18 65 0
19 28 0
19 42 0
19 47 0
19 69 0
19 74 0
19 75 0
19 -80 0
19 -91 0
-19 20 0
-19 -21 0
-19 -26 0
-19 -27 0
-19 36 0
-19 -38 0
-19 -46 0
-19 67 0
-19 -79 0
-19 80 0
-19 -85 0
-19 86 0
-19 91 0
20 71 0
-20 -21 0
-20 77 0
21 22 0
21 23 0
21 -88 0
-21 42 0
-21 -77 0
-21 88 0
-21 -88 0
22 41 0
22 88 0
-22 -41 0
-22 -53 0
-22 -70 0
-22 -71 0
-22 -88 0
23 26 0
23 40 0
